NAME: random-14-15148
TYPE: TSP
COMMENT: size=14 seed=15148
DIMENSION: 30
EDGE_WEIGHT_TYPE: EUC_2D
NODE_COORD_SECTION
+0 436 28
-0 436 28
+1 350 804
-1 848 843
+2 621 706
-2 697 824
+3 27 835
-3 653 563
+4 994 840
-4 191 812
+5 216 271
-5 45 418
+6 281 377
-6 381 609
+7 21 793
-7 873 633
+8 951 970
-8 830 800
+9 691 726
-9 928 10
+10 42 155
-10 102 811
+11 537 913
-11 248 21
+12 955 166
-12 478 952
+13 937 604
-13 890 786
+14 609 749
-14 956 345
PRECEDENCE_SECTION
+0 -0
+1 -1
+2 -2
+3 -3
+4 -4
+5 -5
+6 -6
+7 -7
+8 -8
+9 -9
+10 -10
+11 -11
+12 -12
+13 -13
+14 -14
EOF
